minimize
obj: 60 p_buy_1_
subject to
c1_2: -1 x_1,1_ <= -2
c2_2: -1 x_3,1_ <= -2
c3_2: -1 x_5,1_ <= -2
c4_2: -1 x_7,1_ <= -2
c5_1: -1 x_9,1_ <= 40
c6_1: 1 x_1,1_ <= 8
c7_1: 1 x_3,1_ <= 7
c8_1: 1 x_5,1_ <= 5
c9_1: 1 x_7,1_ <= 7
c10_1: 1 x_9,1_ <= -18
c11_1: 1 x_9,1_ - 1 sp_5,1_ - 1000000 __freezer_1_ <= 1
c12_1: -1 x_9,1_ + 1 sp_5,1_ + 1000000 __freezer_1_ <= 1000001
c13: 1 u_req_1,1_ + 1 u_req_2,1_ + 1 u_req_3,1_ + 1 u_req_4,1_ - 1000000 __fridge_1_ <= 3
c14: -1 u_req_1,1_ - 1 u_req_2,1_ - 1 u_req_3,1_ - 1 u_req_4,1_ + 1 p1_1_ <= 0
c15: 1 u_1,1_ - 1 u_req_1,1_ <= 0
c16: 1 u_2,1_ - 1 u_req_2,1_ <= 0
c17: 1 u_3,1_ - 1 u_req_3,1_ <= 0
c18: 1 u_4,1_ - 1 u_req_4,1_ <= 0
c19: 1 PVused_1_ + 1 PVcurt_1_ <= 0
c20: 1 p_sell_1_ + 1 PVused_1_ <= 0
c1_1: -2500 x_1,1_ + 2500 sp_1,1_ + 1 u_req_1,1_ >= 0
c2_1: -2500 x_3,1_ + 2500 sp_2,1_ + 1 u_req_2,1_ >= 0
c3_1: -2500 x_5,1_ + 2500 sp_3,1_ + 1 u_req_3,1_ >= 0
c4_1: -2500 x_7,1_ + 2500 sp_4,1_ + 1 u_req_4,1_ >= 0
c1: 1 x_1,1_ + 0.00012197622602822021 u_1,1_ = 3.0790560831483784
c2: 1 x_2,1_ + 1.2432005842664846e-6 u_1,1_ = 3.9806560237772715
c3: 1 x_3,1_ + 0.00014581844320778542 u_2,1_ = 2.195612755499643
c4: 1 x_4,1_ + 1.9176209149584723e-6 u_2,1_ = 4.92475198238677
c5: 1 x_5,1_ + 9.797989372063993e-5 u_3,1_ = -14.2465240485824
c6: 1 x_6,1_ + 9.149807652612172e-7 u_3,1_ = 2.674172985930116
c7: 1 x_7,1_ + 0.00013279111380876888 u_4,1_ = 3.939535611906898
c8: 1 x_8,1_ + 1.5301711624557482e-6 u_4,1_ = 2.0448137557656274
c9: 1 x_9,1_ + 0.0010020721792423641 __freezer_1_ = 3.6151223472839646
c10: 1 x_10,1_ + 1.953636599408992e-5 __freezer_1_ = -14.262198513697921
c11: 1 u_1,1_ + 1 u_2,1_ + 1 u_3,1_ + 1 u_4,1_ - 1 p1_1_ - 3 __fridge_1_ = 0
c12: -1 p1_1_ - 3 __fridge_1_ - 5 __freezer_1_ + 1 p_buy_1_ + 1 PVused_1_ = 0
c1_3: 2 <= 1 sp_1,1_ <= 8
c2_3: 2 <= 1 sp_2,1_ <= 7
c3_3: 2 <= 1 sp_3,1_ <= 5
c4_3: 2 <= 1 sp_4,1_ <= 7
c5_2: -40 <= 1 sp_5,1_ <= -18
Bounds
x_1,1_ free
x_2,1_ free
x_3,1_ free
x_4,1_ free
x_5,1_ free
x_6,1_ free
x_7,1_ free
x_8,1_ free
x_9,1_ free
x_10,1_ free
sp_1,1_ free
sp_2,1_ free
sp_3,1_ free
sp_4,1_ free
sp_5,1_ free
u_1,1_ >= 0
u_2,1_ >= 0
u_3,1_ >= 0
u_4,1_ >= 0
u_req_1,1_ >= 0
u_req_2,1_ >= 0
u_req_3,1_ >= 0
u_req_4,1_ >= 0
0 <= p1_1_ <= 3
0 <= p_buy_1_ <= 1000000
0 <= p_sell_1_ <= 1000000
PVused_1_ >= 0
PVcurt_1_ >= 0
Binary
__fridge_1_
__freezer_1_
End
